174 439 62
0
0
1
1
2
2
3
3
4
5
5
6
6
6
6
6
6
6
6
6
7
7
7
7
7
7
7
7
7
7
7
8
8
8
8
8
8
8
8
8
9
9
9
9
9
9
9
9
9
9
9
9
10
10
10
10
10
10
10
10
10
10
11
12
12
13
13
13
13
13
13
13
13
13
13
13
14
15
16
17
18
19
20
21
22
23
24
24
25
25
25
25
25
25
26
26
26
26
26
26
27
27
28
28
28
28
28
28
29
29
29
29
29
29
30
31
32
33
34
35
35
35
35
35
35
36
37
38
39
40
41
42
43
44
45
46
47
48
48
49
50
50
51
52
52
53
53
53
53
53
53
54
55
55
56
57
57
57
57
57
57
58
58
58
59
59
60
60
60
60
60
60
61
61
0 30
0 49
0 101
0 124
0 129
0 145
0 168
1 75
1 105
1 111
1 127
1 146
1 169
2 5
2 34
2 58
2 59
2 64
2 85
3 35
3 98
3 158
3 166
4 24
4 45
4 56
4 87
4 122
5 34
5 58
5 59
5 64
5 85
6 69
6 78
6 130
7 125
7 155
8 113
8 163
9 12
9 90
9 110
9 134
10 103
10 104
10 137
11 65
11 88
11 119
12 90
12 110
12 134
13 14
13 21
13 55
13 82
13 114
13 138
13 156
14 21
14 55
14 82
14 114
14 138
14 156
15 16
15 17
15 22
15 32
15 115
15 139
15 157
16 17
16 22
16 32
16 115
16 139
16 157
17 22
17 32
17 115
17 139
17 157
18 27
18 60
18 71
18 72
18 73
18 80
18 81
18 128
19 28
19 46
19 61
19 74
19 92
19 93
19 135
20 43
20 67
20 109
20 131
21 55
21 82
21 114
21 138
21 156
22 32
22 115
22 139
22 157
23 33
23 44
23 70
23 91
23 95
23 120
23 121
23 164
24 45
24 56
24 87
24 122
25 57
25 63
25 96
25 97
25 136
26 83
26 99
26 143
26 151
26 159
26 167
27 60
27 71
27 72
27 73
27 80
27 81
27 128
28 46
28 61
28 74
28 92
28 93
28 135
29 36
29 37
29 47
29 76
29 100
29 173
30 49
30 101
30 124
30 129
30 145
30 168
31 41
31 53
31 84
31 108
31 172
32 115
32 139
32 157
33 44
33 70
33 91
33 95
33 120
33 121
33 164
34 58
34 59
34 64
34 85
35 98
35 158
35 166
36 37
36 47
36 76
36 100
36 173
37 47
37 76
37 100
37 173
38 48
38 123
38 126
39 51
39 106
39 112
39 162
39 165
40 52
40 66
40 89
41 53
41 84
41 108
41 172
42 54
42 86
42 118
42 133
43 67
43 109
43 131
44 70
44 91
44 95
44 120
44 121
44 164
45 56
45 87
45 122
46 61
46 74
46 92
46 93
46 135
47 76
47 100
47 173
48 123
48 126
49 101
49 124
49 129
49 145
49 168
50 77
50 160
51 106
51 112
51 162
51 165
52 66
52 89
53 84
53 108
53 172
54 86
54 118
54 133
55 82
55 114
55 138
55 156
56 87
56 122
57 63
57 96
57 97
57 136
58 59
58 64
58 85
59 64
59 85
60 71
60 72
60 73
60 80
60 81
60 128
61 74
61 92
61 93
61 135
62 116
62 154
63 96
63 97
63 136
64 85
65 88
65 119
66 89
67 109
67 131
68 94
68 102
68 117
68 161
69 78
69 130
70 91
70 95
70 120
70 121
70 164
71 72
71 73
71 80
71 81
71 128
72 73
72 80
72 81
72 128
73 80
73 81
73 128
74 92
74 93
74 135
75 105
75 111
75 127
75 146
75 169
76 100
76 173
77 160
78 130
79 147
80 81
80 128
81 128
82 114
82 138
82 156
83 99
83 143
83 151
83 159
83 167
84 108
84 172
86 118
86 133
87 122
88 119
90 110
90 134
91 95
91 120
91 121
91 164
92 93
92 135
93 135
94 102
94 117
94 161
95 120
95 121
95 164
96 97
96 136
97 136
98 158
98 166
99 143
99 151
99 159
99 167
100 173
101 124
101 129
101 145
101 168
102 117
102 161
103 104
103 137
104 137
105 111
105 127
105 146
105 169
106 112
106 162
106 165
107 140
107 141
107 148
107 149
107 170
108 172
109 131
110 134
111 127
111 146
111 169
112 162
112 165
113 163
114 138
114 156
115 139
115 157
116 154
117 161
118 133
120 121
120 164
121 164
123 126
124 129
124 145
124 168
125 155
127 146
127 169
129 145
129 168
138 156
139 157
140 141
140 148
140 149
140 170
141 148
141 149
141 170
143 151
143 159
143 167
144 150
144 171
145 168
146 169
148 149
148 170
149 170
150 171
151 159
151 167
158 166
159 167
162 165